32811 34413 
31332 35103 
33691 33873 
33734 33849 
32938 34335 
32765 34431 
33963 33689 
33893 33748 
31459 35025 
31286 35121 
33367 34088 
33605 33938 
31421 35038 
31157 35210 
30086 35560 
29909 35641 
33766 33837 
33230 34202 
33482 34036 
33057 34298 
31526 35024 
29993 35587 
29780 35730 
33720 33855 
31787 34840 
31914 34762 
33184 34220 
33393 34078 
33436 34054 
31741 34858 
32134 34585 
31375 35071 
31676 34912 
32105 34603 
30530 35295 
32218 34531 
32293 34484 
30448 35315 
30292 35445 
30210 35465 
